NAME : portcgen-22-13
COMMENT : portcgen N=22, seed=13
TYPE : TSP
DIMENSION : 22
EDGE_WEIGHT_TYPE : EUC_2D
NODE_COORD_SECTION
1 186496 -139105
2 -173461 54573
3 220432 -175847
4 112906 223149
5 -107964 54607
6 117678 970541
7 213375 174550
8 -221622 -138224
9 269847 -188929
10 -96699 -248972
11 55541 -66382
12 -108020 -87516
13 -123517 55190
14 -295894 -129585
15 -147857 -86999
16 61896 -117351
17 264077 254414
18 38966 -160248
19 28949 62995
20 -182338 459828
21 -183717 -242984
22 -405797 270591
